0 0.92
1 0.78
2 0.44
3 0.36
4 0.38
5 0.36
6 0.3
7 0.28
8 0.18
9 0.12
10 0.46
11 0.48
12 0.4
13 0.34
14 0.3
15 0.32
16 0.26
17 0.24
18 0.12
19 0.04
20 0.42
21 0.26
22 0.2
23 0.2
24 0.14
25 0.08
26 0.08
27 0.08
28 0.06
29 0.06
30 0.34
31 0.3
32 0.28
33 0.26
34 0.24
35 0.14
36 0.14
37 0.1
38 0.08
39 0.04
40 1
41 0.7
42 0.74
43 0.66
44 0.64
45 0.58
46 0.62
47 0.58
48 0.54
49 0.5
50 0.84
51 0.82
52 0.72
53 0.8
54 0.76
55 0.72
56 0.7
57 0.74
58 0.66
59 0.58
60 0.96
61 0.3
62 0.18
63 0.14
64 0.1
65 0.04
66 0.08
67 0.04
68 0.02
69 0.02
70 0.22
71 0.2
72 0.22
73 0.16
74 0.14
75 0.14
76 0.12
77 0.14
78 0.04
79 0.02
80 0.68
81 0.62
82 0.6
83 0.56
84 0.5
85 0.56
86 0.52
87 0.46
88 0.5
89 0.5
90 0.78
91 0.74
92 0.72
93 0.64
94 0.66
95 0.6
96 0.64
97 0.52
98 0.5
99 0.4
100 0.92
101 0.88
102 0.8
103 0.76
104 0.74
105 0.74
106 0.72
107 0.64
108 0.68
109 0.64
110 0.96
111 0.88
112 0.88
113 0.8
114 0.8
115 0.68
116 0.64
117 0.56
118 0.62
119 0.08
120 0.24
121 0.3
122 0.28
123 0.24
124 0.12
125 0.1
126 0.1
127 0.04
128 0.04
129 0.04
130 0.28
131 0.3
132 0.24
133 0.28
134 0.26
135 0.18
136 0.16
137 0.12
138 0.04
139 0.04
140 0.98
141 0.56
142 0.56
143 0.4
144 0.34
145 0.32
146 0.2
147 0.22
148 0.16
149 0.12
150 0.38
151 0.42
152 0.42
153 0.36
154 0.32
155 0.26
156 0.14
157 0.08
158 0.08
159 0.06
160 0.38
161 0.3
162 0.22
163 0.16
164 0.14
165 0.16
166 0.1
167 0.1
168 0.1
169 0.1
170 0.36
171 0.32
172 0.3
173 0.32
174 0.24
175 0.22
176 0.2
177 0.12
178 0.1
179 0.08
180 0.78
181 0.68
182 0.66
183 0.5
184 0.46
185 0.42
186 0.4
187 0.36
188 0.4
189 0.34
190 0.66
191 0.62
192 0.64
193 0.66
194 0.56
195 0.5
196 0.5
197 0.48
198 0.36
199 0.12
200 0.88
201 0.84
202 0.78
203 0.78
204 0.72
205 0.7
206 0.7
207 0.66
208 0.7
209 0.66
210 0.96
211 0.9
212 0.88
213 0.9
214 0.84
215 0.9
216 0.84
217 0.86
218 0.82
219 0.76
220 0.34
221 0.3
222 0.22
223 0.26
224 0.14
225 0.14
226 0.14
227 0.12
228 0.06
229 0.06
230 0.4
231 0.34
232 0.32
233 0.3
234 0.22
235 0.26
236 0.22
237 0.2
238 0.1
239 0.06
240 0.78
241 0.72
242 0.64
243 0.62
244 0.66
245 0.6
246 0.56
247 0.54
248 0.62
249 0.54
250 0.8
251 0.7
252 0.7
253 0.72
254 0.68
255 0.62
256 0.5
257 0.54
258 0.44
259 0.04
260 1
261 0.94
262 0.88
263 0.84
264 0.84
265 0.76
266 0.7
267 0.66
268 0.6
269 0.62
270 0.86
271 0.94
272 0.82
273 0.86
274 0.78
275 0.72
276 0.64
277 0.58
278 0.56
279 0.48
280 0.46
281 0.2
282 0.2
283 0.16
284 0.12
285 0.08
286 0.06
287 0.04
288 0.04
289 0.04
290 0.22
291 0.2
292 0.18
293 0.18
294 0.16
295 0.1
296 0.06
297 0.08
298 0.04
299 0.02
300 0.74
301 0.66
302 0.66
303 0.62
304 0.64
305 0.54
306 0.46
307 0.44
308 0.42
309 0.38
310 0.68
311 0.68
312 0.6
313 0.6
314 0.58
315 0.56
316 0.6
317 0.42
318 0.42
319 0.4
320 1
321 0.96
322 0.98
323 0.92
324 0.94
325 0.94
326 0.96
327 0.92
328 0.88
329 0.92
330 1
331 1
332 1
333 1
334 0.98
335 0.96
336 0.94
337 0.86
338 0.76
339 0.16
340 1
341 0.98
342 0.92
343 0.9
344 0.94
345 0.86
346 0.8
347 0.8
348 0.76
349 0.7
350 0.98
351 1
352 0.98
353 0.94
354 0.98
355 0.92
356 0.9
357 0.8
358 0.86
359 0.88
360 0.44
361 0.38
362 0.38
363 0.32
364 0.32
365 0.28
366 0.3
367 0.32
368 0.26
369 0.24
370 0.56
371 0.48
372 0.58
373 0.42
374 0.44
375 0.4
376 0.36
377 0.34
378 0.28
379 0.28
380 0.4
381 0.28
382 0.18
383 0.08
384 0.06
385 0.06
386 0.02
387 0.02
388 0.02
389 0.02
390 0.24
391 0.18
392 0.14
393 0.16
394 0.14
395 0.1
396 0.08
397 0.1
398 0.06
399 0.02
400 0.98
401 0.68
402 0.62
403 0.56
404 0.56
405 0.56
406 0.54
407 0.48
408 0.54
409 0.52
410 0.72
411 0.78
412 0.72
413 0.7
414 0.7
415 0.58
416 0.58
417 0.54
418 0.5
419 0.04
420 0.96
421 0.64
422 0.6
423 0.6
424 0.54
425 0.46
426 0.42
427 0.42
428 0.38
429 0.4
430 0.62
431 0.64
432 0.56
433 0.54
434 0.44
435 0.4
436 0.34
437 0.22
438 0.08
439 0.02
440 0.44
441 0.36
442 0.34
443 0.32
444 0.26
445 0.2
446 0.2
447 0.2
448 0.2
449 0.14
450 0.46
451 0.48
452 0.44
453 0.46
454 0.4
455 0.44
456 0.38
457 0.26
458 0.26
459 0.04
460 1
461 0.98
462 0.88
463 0.9
464 0.84
465 0.84
466 0.82
467 0.82
468 0.74
469 0.74
470 1
471 0.96
472 0.94
473 0.92
474 0.94
475 0.92
476 0.82
477 0.86
478 0.86
479 0.84
480 0.98
481 0.88
482 0.82
483 0.82
484 0.76
485 0.64
486 0.6
487 0.56
488 0.48
489 0.6
490 0.82
491 0.82
492 0.8
493 0.78
494 0.76
495 0.68
496 0.68
497 0.6
498 0.54
499 0.5
500 0.9
501 0.36
502 0.24
503 0.24
504 0.16
505 0.16
506 0.16
507 0.14
508 0.08
509 0.08
510 0.32
511 0.28
512 0.28
513 0.22
514 0.18
515 0.14
516 0.12
517 0.06
518 0.04
519 0.02
520 0.92
521 0.5
522 0.46
523 0.48
524 0.44
525 0.34
526 0.3
527 0.34
528 0.26
529 0.28
530 0.68
531 0.6
532 0.6
533 0.54
534 0.54
535 0.5
536 0.52
537 0.48
538 0.36
539 0.02
540 0.96
541 0.9
542 0.84
543 0.84
544 0.8
545 0.76
546 0.68
547 0.72
548 0.62
549 0.66
550 0.94
551 0.92
552 0.86
553 0.84
554 0.76
555 0.82
556 0.8
557 0.74
558 0.7
559 0.68
560 1
561 0.96
562 0.96
563 0.88
564 0.82
565 0.86
566 0.82
567 0.86
568 0.82
569 0.8
570 1
571 1
572 0.98
573 0.98
574 0.96
575 0.92
576 0.94
577 0.88
578 0.92
579 0.06
580 0.22
581 0.22
582 0.16
583 0.14
584 0.12
585 0.08
586 0.06
587 0.02
588 0.04
589 0.02
590 0.22
591 0.2
592 0.16
593 0.16
594 0.2
595 0.18
596 0.12
597 0.06
598 0.08
599 0.02
600 0.5
601 0.44
602 0.38
603 0.3
604 0.22
605 0.12
606 0.16
607 0.1
608 0.1
609 0.04
610 0.34
611 0.36
612 0.34
613 0.26
614 0.28
615 0.24
616 0.16
617 0.12
618 0.08
619 0.06
620 1
621 1
622 0.9
623 0.94
624 0.88
625 0.82
626 0.8
627 0.8
628 0.78
629 0.74
630 0.98
631 0.98
632 0.92
633 0.88
634 0.88
635 0.88
636 0.8
637 0.78
638 0.74
639 0.66
640 0.5
641 0.44
642 0.4
643 0.32
644 0.28
645 0.26
646 0.26
647 0.22
648 0.18
649 0.18
650 0.44
651 0.46
652 0.46
653 0.44
654 0.4
655 0.32
656 0.34
657 0.26
658 0.26
659 0.02
660 0.94
661 0.68
662 0.62
663 0.62
664 0.58
665 0.5
666 0.58
667 0.52
668 0.48
669 0.54
670 0.78
671 0.8
672 0.74
673 0.7
674 0.68
675 0.62
676 0.56
677 0.54
678 0.46
679 0.3
680 0.58
681 0.44
682 0.44
683 0.38
684 0.32
685 0.36
686 0.28
687 0.22
688 0.3
689 0.24
690 0.6
691 0.58
692 0.52
693 0.54
694 0.5
695 0.44
696 0.38
697 0.34
698 0.24
699 0.22
700 0.96
701 0.94
702 0.76
703 0.72
704 0.72
705 0.6
706 0.58
707 0.54
708 0.46
709 0.58
710 0.88
711 0.76
712 0.84
713 0.82
714 0.74
715 0.66
716 0.66
717 0.66
718 0.6
719 0.36
720 0.98
721 0.92
722 0.78
723 0.74
724 0.68
725 0.66
726 0.7
727 0.52
728 0.52
729 0.52
730 0.9
731 0.84
732 0.74
733 0.74
734 0.74
735 0.76
736 0.68
737 0.64
738 0.54
739 0.32
740 1
741 0.96
742 0.96
743 0.84
744 0.86
745 0.9
746 0.8
747 0.78
748 0.76
749 0.74
750 0.98
751 0.96
752 0.94
753 0.92
754 0.88
755 0.92
756 0.9
757 0.78
758 0.76
759 0.64
760 0.58
761 0.46
762 0.4
763 0.36
764 0.36
765 0.26
766 0.28
767 0.24
768 0.18
769 0.12
770 0.42
771 0.42
772 0.4
773 0.38
774 0.3
775 0.32
776 0.2
777 0.18
778 0.18
779 0.12
780 0.94
781 0.9
782 0.86
783 0.76
784 0.74
785 0.68
786 0.64
787 0.68
788 0.64
789 0.54
790 0.92
791 0.78
792 0.82
793 0.84
794 0.76
795 0.78
796 0.76
797 0.7
798 0.66
799 0.7
800 0.6
801 0.58
802 0.52
803 0.56
804 0.46
805 0.46
806 0.4
807 0.4
808 0.34
809 0.26
810 0.62
811 0.6
812 0.58
813 0.52
814 0.5
815 0.48
816 0.5
817 0.48
818 0.4
819 0.38
820 0.8
821 0.48
822 0.38
823 0.34
824 0.36
825 0.32
826 0.34
827 0.28
828 0.24
829 0.18
830 0.48
831 0.46
832 0.52
833 0.42
834 0.44
835 0.38
836 0.36
837 0.28
838 0.28
839 0.24
840 0.86
841 0.88
842 0.78
843 0.78
844 0.76
845 0.72
846 0.72
847 0.7
848 0.7
849 0.7
850 0.9
851 0.9
852 0.9
853 0.86
854 0.82
855 0.72
856 0.62
857 0.58
858 0.42
859 0.2
860 0.34
861 0.24
862 0.18
863 0.2
864 0.12
865 0.1
866 0.06
867 0.02
868 0.06
869 0.02
870 0.3
871 0.24
872 0.2
873 0.2
874 0.14
875 0.12
876 0.06
877 0.1
878 0.06
879 0.02
880 0.9
881 0.84
882 0.28
883 0.24
884 0.26
885 0.16
886 0.22
887 0.12
888 0.14
889 0.08
890 0.38
891 0.38
892 0.36
893 0.38
894 0.3
895 0.3
896 0.18
897 0.16
898 0.1
899 0.1
900 0.98
901 0.94
902 0.94
903 0.9
904 0.92
905 0.84
906 0.86
907 0.9
908 0.82
909 0.76
910 1
911 1
912 0.98
913 0.96
914 0.96
915 0.94
916 0.86
917 0.78
918 0.72
919 0.42
920 0.52
921 0.44
922 0.4
923 0.36
924 0.3
925 0.32
926 0.32
927 0.22
928 0.18
929 0.18
930 0.56
931 0.52
932 0.46
933 0.36
934 0.38
935 0.34
936 0.32
937 0.24
938 0.18
939 0.16
940 0.98
941 0.64
942 0.6
943 0.58
944 0.48
945 0.48
946 0.48
947 0.42
948 0.42
949 0.38
950 0.64
951 0.66
952 0.64
953 0.62
954 0.52
955 0.48
956 0.52
957 0.56
958 0.46
959 0.1
960 1
961 0.98
962 0.92
963 0.86
964 0.86
965 0.88
966 0.82
967 0.8
968 0.72
969 0.68
970 0.96
971 0.96
972 0.94
973 0.9
974 0.84
975 0.84
976 0.8
977 0.74
978 0.7
979 0.52
980 0.86
981 0.72
982 0.52
983 0.52
984 0.5
985 0.48
986 0.48
987 0.42
988 0.42
989 0.42
990 0.72
991 0.62
992 0.62
993 0.56
994 0.58
995 0.52
996 0.54
997 0.46
998 0.44
999 0.02



0 0.92
1 0.78
2 0.46
3 0.36
4 0.4
5 0.36
6 0.3
7 0.28
8 0.18
9 0.12
10 0.44
11 0.48
12 0.38
13 0.34
14 0.3
15 0.24
16 0.24
17 0.22
18 0.12
19 0.04
20 0.42
21 0.32
22 0.2
23 0.2
24 0.14
25 0.1
26 0.08
27 0.08
28 0.06
29 0.06
30 0.34
31 0.28
32 0.28
33 0.28
34 0.2
35 0.14
36 0.14
37 0.1
38 0.08
39 0.04
40 1
41 0.7
42 0.74
43 0.66
44 0.64
45 0.58
46 0.62
47 0.58
48 0.5
49 0.48
50 0.84
51 0.82
52 0.72
53 0.78
54 0.76
55 0.72
56 0.7
57 0.72
58 0.64
59 0.58
60 0.96
61 0.34
62 0.22
63 0.14
64 0.14
65 0.04
66 0.08
67 0.04
68 0.02
69 0.02
70 0.22
71 0.2
72 0.2
73 0.16
74 0.14
75 0.14
76 0.1
77 0.08
78 0.04
79 0.02
80 0.68
81 0.62
82 0.6
83 0.56
84 0.5
85 0.56
86 0.52
87 0.44
88 0.5
89 0.5
90 0.76
91 0.74
92 0.72
93 0.64
94 0.66
95 0.6
96 0.64
97 0.52
98 0.48
99 0.4
100 0.92
101 0.9
102 0.8
103 0.76
104 0.74
105 0.74
106 0.72
107 0.64
108 0.68
109 0.64
110 0.96
111 0.88
112 0.88
113 0.8
114 0.8
115 0.68
116 0.62
117 0.6
118 0.62
119 0.08
120 0.32
121 0.3
122 0.28
123 0.24
124 0.12
125 0.1
126 0.08
127 0.04
128 0.04
129 0.04
130 0.28
131 0.3
132 0.24
133 0.26
134 0.24
135 0.18
136 0.1
137 0.12
138 0.04
139 0.04
140 0.98
141 0.56
142 0.58
143 0.4
144 0.34
145 0.3
146 0.2
147 0.22
148 0.16
149 0.12
150 0.38
151 0.38
152 0.42
153 0.36
154 0.32
155 0.26
156 0.16
157 0.06
158 0.08
159 0.06
160 0.4
161 0.3
162 0.22
163 0.16
164 0.14
165 0.16
166 0.1
167 0.08
168 0.1
169 0.1
170 0.34
171 0.32
172 0.3
173 0.32
174 0.24
175 0.22
176 0.14
177 0.12
178 0.1
179 0.08
180 0.78
181 0.68
182 0.66
183 0.5
184 0.46
185 0.42
186 0.38
187 0.32
188 0.36
189 0.28
190 0.64
191 0.62
192 0.62
193 0.66
194 0.52
195 0.5
196 0.5
197 0.46
198 0.36
199 0.12
200 0.88
201 0.84
202 0.78
203 0.76
204 0.72
205 0.7
206 0.7
207 0.66
208 0.7
209 0.66
210 0.96
211 0.9
212 0.88
213 0.9
214 0.84
215 0.9
216 0.84
217 0.88
218 0.82
219 0.76
220 0.34
221 0.3
222 0.22
223 0.26
224 0.14
225 0.14
226 0.1
227 0.12
228 0.06
229 0.06
230 0.4
231 0.34
232 0.32
233 0.3
234 0.22
235 0.18
236 0.2
237 0.2
238 0.1
239 0.06
240 0.78
241 0.72
242 0.64
243 0.62
244 0.66
245 0.6
246 0.56
247 0.54
248 0.62
249 0.54
250 0.8
251 0.7
252 0.7
253 0.72
254 0.68
255 0.62
256 0.5
257 0.54
258 0.44
259 0.4
260 1
261 0.94
262 0.88
263 0.84
264 0.84
265 0.76
266 0.7
267 0.66
268 0.6
269 0.62
270 0.86
271 0.94
272 0.82
273 0.86
274 0.78
275 0.72
276 0.64
277 0.58
278 0.54
279 0.48
280 0.46
281 0.34
282 0.2
283 0.16
284 0.16
285 0.1
286 0.06
287 0.04
288 0.04
289 0.04
290 0.22
291 0.2
292 0.18
293 0.16
294 0.16
295 0.1
296 0.04
297 0.02
298 0.04
299 0.02
300 0.74
301 0.66
302 0.66
303 0.62
304 0.64
305 0.54
306 0.46
307 0.44
308 0.42
309 0.36
310 0.66
311 0.68
312 0.6
313 0.58
314 0.54
315 0.56
316 0.6
317 0.42
318 0.42
319 0.38
320 1
321 0.96
322 0.98
323 0.92
324 0.94
325 0.94
326 0.96
327 0.92
328 0.88
329 0.92
330 1
331 1
332 1
333 1
334 0.98
335 0.96
336 0.94
337 0.86
338 0.8
339 0.22
340 1
341 0.98
342 0.92
343 0.9
344 0.94
345 0.86
346 0.8
347 0.8
348 0.76
349 0.7
350 0.98
351 1
352 0.98
353 0.94
354 0.98
355 0.92
356 0.9
357 0.8
358 0.86
359 0.86
360 0.44
361 0.38
362 0.38
363 0.3
364 0.3
365 0.26
366 0.3
367 0.32
368 0.26
369 0.24
370 0.56
371 0.48
372 0.58
373 0.42
374 0.4
375 0.38
376 0.36
377 0.32
378 0.28
379 0.28
380 0.4
381 0.32
382 0.18
383 0.08
384 0.06
385 0.06
386 0.02
387 0.02
388 0.02
389 0.02
390 0.28
391 0.18
392 0.14
393 0.14
394 0.14
395 0.08
396 0.08
397 0.04
398 0.06
399 0.02
400 0.98
401 0.68
402 0.62
403 0.56
404 0.52
405 0.56
406 0.52
407 0.48
408 0.54
409 0.54
410 0.72
411 0.78
412 0.72
413 0.7
414 0.7
415 0.58
416 0.56
417 0.54
418 0.48
419 0.46
420 0.96
421 0.64
422 0.6
423 0.6
424 0.54
425 0.46
426 0.4
427 0.4
428 0.34
429 0.38
430 0.62
431 0.64
432 0.56
433 0.54
434 0.42
435 0.4
436 0.34
437 0.16
438 0.08
439 0.02
440 0.44
441 0.42
442 0.34
443 0.32
444 0.26
445 0.2
446 0.2
447 0.2
448 0.2
449 0.14
450 0.46
451 0.46
452 0.44
453 0.44
454 0.36
455 0.44
456 0.38
457 0.26
458 0.26
459 0.04
460 1
461 0.98
462 0.88
463 0.88
464 0.84
465 0.84
466 0.82
467 0.82
468 0.74
469 0.74
470 1
471 0.96
472 0.94
473 0.92
474 0.94
475 0.92
476 0.82
477 0.86
478 0.86
479 0.84
480 0.98
481 0.88
482 0.82
483 0.82
484 0.78
485 0.66
486 0.6
487 0.56
488 0.48
489 0.6
490 0.82
491 0.82
492 0.8
493 0.78
494 0.76
495 0.68
496 0.68
497 0.58
498 0.54
499 0.5
500 0.9
501 0.36
502 0.24
503 0.24
504 0.16
505 0.16
506 0.16
507 0.14
508 0.08
509 0.08
510 0.32
511 0.28
512 0.28
513 0.22
514 0.18
515 0.12
516 0.06
517 0.06
518 0.04
519 0.02
520 0.92
521 0.5
522 0.46
523 0.48
524 0.44
525 0.38
526 0.28
527 0.34
528 0.24
529 0.26
530 0.68
531 0.6
532 0.58
533 0.54
534 0.52
535 0.5
536 0.5
537 0.48
538 0.36
539 0.32
540 0.96
541 0.9
542 0.84
543 0.84
544 0.8
545 0.76
546 0.68
547 0.72
548 0.62
549 0.62
550 0.94
551 0.92
552 0.86
553 0.84
554 0.76
555 0.82
556 0.8
557 0.74
558 0.7
559 0.68
560 1
561 0.96
562 0.96
563 0.88
564 0.82
565 0.86
566 0.82
567 0.86
568 0.82
569 0.8
570 1
571 1
572 0.98
573 0.98
574 0.96
575 0.92
576 0.94
577 0.88
578 0.92
579 0.68
580 0.22
581 0.22
582 0.16
583 0.14
584 0.12
585 0.08
586 0.06
587 0.02
588 0.04
589 0.02
590 0.24
591 0.18
592 0.16
593 0.16
594 0.18
595 0.12
596 0.12
597 0.06
598 0.08
599 0.02
600 0.54
601 0.44
602 0.38
603 0.36
604 0.22
605 0.12
606 0.12
607 0.1
608 0.1
609 0.04
610 0.34
611 0.36
612 0.26
613 0.26
614 0.26
615 0.24
616 0.14
617 0.12
618 0.08
619 0.06
620 1
621 1
622 0.9
623 0.94
624 0.88
625 0.82
626 0.8
627 0.8
628 0.78
629 0.74
630 0.98
631 0.98
632 0.92
633 0.88
634 0.88
635 0.88
636 0.8
637 0.78
638 0.74
639 0.66
640 0.5
641 0.44
642 0.4
643 0.32
644 0.26
645 0.24
646 0.26
647 0.22
648 0.18
649 0.18
650 0.44
651 0.46
652 0.42
653 0.42
654 0.4
655 0.3
656 0.34
657 0.26
658 0.26
659 0.02
660 0.94
661 0.68
662 0.64
663 0.62
664 0.58
665 0.5
666 0.58
667 0.52
668 0.48
669 0.52
670 0.78
671 0.8
672 0.74
673 0.7
674 0.68
675 0.6
676 0.56
677 0.52
678 0.46
679 0.3
680 0.58
681 0.44
682 0.44
683 0.38
684 0.3
685 0.36
686 0.28
687 0.22
688 0.28
689 0.2
690 0.6
691 0.56
692 0.5
693 0.52
694 0.48
695 0.44
696 0.38
697 0.34
698 0.24
699 0.22
700 0.96
701 0.94
702 0.76
703 0.72
704 0.72
705 0.6
706 0.58
707 0.54
708 0.46
709 0.56
710 0.88
711 0.76
712 0.84
713 0.82
714 0.74
715 0.66
716 0.66
717 0.66
718 0.6
719 0.36
720 0.98
721 0.92
722 0.78
723 0.74
724 0.68
725 0.66
726 0.7
727 0.56
728 0.54
729 0.52
730 0.9
731 0.84
732 0.74
733 0.74
734 0.74
735 0.74
736 0.68
737 0.64
738 0.6
739 0.54
740 1
741 0.96
742 0.96
743 0.84
744 0.86
745 0.9
746 0.8
747 0.78
748 0.76
749 0.74
750 0.98
751 0.96
752 0.94
753 0.92
754 0.88
755 0.92
756 0.9
757 0.78
758 0.76
759 0.66
760 0.58
761 0.46
762 0.38
763 0.36
764 0.36
765 0.26
766 0.28
767 0.24
768 0.18
769 0.12
770 0.4
771 0.4
772 0.4
773 0.3
774 0.3
775 0.32
776 0.2
777 0.16
778 0.18
779 0.12
780 0.94
781 0.9
782 0.86
783 0.76
784 0.74
785 0.68
786 0.64
787 0.68
788 0.64
789 0.54
790 0.92
791 0.78
792 0.82
793 0.84
794 0.76
795 0.78
796 0.76
797 0.7
798 0.66
799 0.7
800 0.6
801 0.58
802 0.52
803 0.56
804 0.46
805 0.46
806 0.4
807 0.42
808 0.34
809 0.26
810 0.6
811 0.56
812 0.58
813 0.52
814 0.5
815 0.48
816 0.5
817 0.44
818 0.4
819 0.36
820 0.8
821 0.48
822 0.4
823 0.36
824 0.38
825 0.32
826 0.34
827 0.28
828 0.24
829 0.18
830 0.48
831 0.46
832 0.52
833 0.42
834 0.44
835 0.38
836 0.34
837 0.26
838 0.22
839 0.24
840 0.86
841 0.88
842 0.78
843 0.78
844 0.76
845 0.72
846 0.72
847 0.7
848 0.7
849 0.7
850 0.9
851 0.9
852 0.9
853 0.86
854 0.82
855 0.72
856 0.62
857 0.58
858 0.42
859 0.2
860 0.34
861 0.24
862 0.18
863 0.2
864 0.12
865 0.1
866 0.06
867 0.02
868 0.06
869 0.02
870 0.28
871 0.22
872 0.2
873 0.2
874 0.14
875 0.12
876 0.06
877 0.1
878 0.06
879 0.02
880 0.9
881 0.84
882 0.28
883 0.24
884 0.26
885 0.16
886 0.22
887 0.12
888 0.14
889 0.08
890 0.42
891 0.36
892 0.34
893 0.38
894 0.3
895 0.3
896 0.18
897 0.16
898 0.1
899 0.1
900 0.98
901 0.94
902 0.94
903 0.9
904 0.92
905 0.84
906 0.86
907 0.9
908 0.82
909 0.76
910 1
911 1
912 0.98
913 0.96
914 0.96
915 0.94
916 0.86
917 0.78
918 0.72
919 0.66
920 0.52
921 0.44
922 0.4
923 0.32
924 0.28
925 0.32
926 0.3
927 0.18
928 0.18
929 0.18
930 0.54
931 0.52
932 0.46
933 0.36
934 0.38
935 0.32
936 0.32
937 0.24
938 0.18
939 0.16
940 0.98
941 0.64
942 0.6
943 0.58
944 0.5
945 0.48
946 0.48
947 0.42
948 0.42
949 0.38
950 0.64
951 0.64
952 0.64
953 0.62
954 0.52
955 0.48
956 0.5
957 0.56
958 0.46
959 0.1
960 1
961 0.98
962 0.92
963 0.86
964 0.86
965 0.88
966 0.82
967 0.8
968 0.72
969 0.68
970 0.96
971 0.96
972 0.94
973 0.9
974 0.84
975 0.84
976 0.8
977 0.74
978 0.76
979 0.62
980 0.86
981 0.72
982 0.52
983 0.52
984 0.5
985 0.48
986 0.48
987 0.42
988 0.42
989 0.42
990 0.7
991 0.62
992 0.58
993 0.56
994 0.56
995 0.52
996 0.54
997 0.46
998 0.44
999 0.02



